392 372
340 82
383 101
416 105 
437 127 
458 159 
483 193 
574 194 
683 163 
734 210 
684 252 
633 271 
530 345 
475 366 
409 424 
366 426 
401 317 
418 278 
408 234 
356 229 
296 303 
239 363 
176 404 
102 402 
159 332 
208 263 
178 210 
175 152 
251 110 
302 89




